\ LP format - for model browsing. Use MPS format to capture full model detail.
Minimize
  C
Subject To
 inicio_maquina(m1,t1): f(1,0) = 1
 inicio_maquina(m2,t1): x(1,2,0) + x(2,2,0) + x(3,2,0) + f(2,0) = 1
 inicio_maquina(m3,t1): f(3,0) = 1
 fluxo_maquina(1,1): f(1,0) - f(1,1) = 0
 fluxo_maquina(1,2): f(1,1) - f(1,2) = 0
 fluxo_maquina(1,3): f(1,2) - f(1,3) = 0
 fluxo_maquina(1,4): f(1,3) - f(1,4) - x(3,1,4) = 0
 fluxo_maquina(1,5): f(1,4) - f(1,5) - x(2,1,5) - x(3,1,5) = 0
 fluxo_maquina(1,6): f(1,5) - f(1,6) - x(2,1,6) - x(3,1,6) = 0
 fluxo_maquina(1,7): f(1,6) - f(1,7) - x(2,1,7) + x(3,1,4) - x(3,1,7) = 0
 fluxo_maquina(1,8): f(1,7) - f(1,8) - x(2,1,8) + x(3,1,5) - x(1,1,8)
   - x(3,1,8) = 0
 fluxo_maquina(1,9): f(1,8) - f(1,9) + x(2,1,5) - x(2,1,9) + x(3,1,6)
   - x(1,1,9) - x(3,1,9) = 0
 fluxo_maquina(1,10): f(1,9) - f(1,10) + x(2,1,6) - x(2,1,10) + x(3,1,7)
   - x(1,1,10) - x(3,1,10) = 0
 fluxo_maquina(1,11): f(1,10) - f(1,11) + x(2,1,7) - x(2,1,11) + x(3,1,8)
   - x(1,1,11) - x(3,1,11) = 0
 fluxo_maquina(1,12): f(1,11) - f(1,12) + x(2,1,8) - x(2,1,12) + x(3,1,9)
   - x(1,1,12) - x(3,1,12) = 0
 fluxo_maquina(1,13): f(1,12) - f(1,13) + x(2,1,9) - x(2,1,13) + x(1,1,8)
   + x(3,1,10) - x(1,1,13) - x(3,1,13) = 0
 fluxo_maquina(1,14): f(1,13) - f(1,14) + x(2,1,10) + x(1,1,9) + x(3,1,11)
   - x(1,1,14) - x(3,1,14) = 0
 fluxo_maquina(1,15): f(1,14) - f(1,15) + x(2,1,11) + x(1,1,10) + x(3,1,12)
   - x(1,1,15) - x(3,1,15) = 0
 fluxo_maquina(1,16): f(1,15) - f(1,16) + x(2,1,12) + x(1,1,11) + x(3,1,13)
   - x(3,1,16) = 0
 fluxo_maquina(1,17): f(1,16) - f(1,17) + x(2,1,13) + x(1,1,12) + x(3,1,14)
   - x(3,1,17) = 0
 fluxo_maquina(1,18): f(1,17) - f(1,18) + x(1,1,13) + x(3,1,15) = 0
 fluxo_maquina(1,19): f(1,18) - f(1,19) + x(1,1,14) + x(3,1,16) = 0
 fluxo_maquina(1,20): f(1,19) - f(1,20) + x(1,1,15) + x(3,1,17) = 0
 fluxo_maquina(2,1): - x(1,2,1) - x(2,2,1) - x(3,2,1) + f(2,0) - f(2,1)
   = 0
 fluxo_maquina(2,2): - x(1,2,2) - x(2,2,2) - x(3,2,2) + f(2,1) - f(2,2)
   = 0
 fluxo_maquina(2,3): x(1,2,0) + x(3,2,0) - x(1,2,3) - x(2,2,3) - x(3,2,3)
   + f(2,2) - f(2,3) = 0
 fluxo_maquina(2,4): x(1,2,1) + x(3,2,1) - x(1,2,4) - x(2,2,4) - x(3,2,4)
   + f(2,3) - f(2,4) = 0
 fluxo_maquina(2,5): x(2,2,0) + x(1,2,2) + x(3,2,2) - x(1,2,5) - x(2,2,5)
   - x(3,2,5) + f(2,4) - f(2,5) = 0
 fluxo_maquina(2,6): x(2,2,1) + x(1,2,3) + x(3,2,3) - x(1,2,6) - x(2,2,6)
   - x(3,2,6) + f(2,5) - f(2,6) = 0
 fluxo_maquina(2,7): x(2,2,2) + x(1,2,4) + x(3,2,4) - x(1,2,7) - x(2,2,7)
   - x(3,2,7) + f(2,6) - f(2,7) = 0
 fluxo_maquina(2,8): x(2,2,3) + x(1,2,5) + x(3,2,5) - x(2,2,8) - x(3,2,8)
   + f(2,7) - f(2,8) = 0
 fluxo_maquina(2,9): x(2,2,4) + x(1,2,6) + x(3,2,6) - x(3,2,9) + f(2,8)
   - f(2,9) = 0
 fluxo_maquina(2,10): x(2,2,5) + x(1,2,7) + x(3,2,7) - x(3,2,10) + f(2,9)
   - f(2,10) = 0
 fluxo_maquina(2,11): x(2,2,6) + x(3,2,8) - x(3,2,11) + f(2,10) - f(2,11)
   = 0
 fluxo_maquina(2,12): x(2,2,7) + x(3,2,9) - x(3,2,12) + f(2,11) - f(2,12)
   = 0
 fluxo_maquina(2,13): x(2,2,8) + x(3,2,10) - x(3,2,13) + f(2,12) - f(2,13)
   = 0
 fluxo_maquina(2,14): x(3,2,11) + f(2,13) - f(2,14) = 0
 fluxo_maquina(2,15): x(3,2,12) + f(2,14) - f(2,15) = 0
 fluxo_maquina(2,16): x(3,2,13) + f(2,15) - f(2,16) = 0
 fluxo_maquina(2,17): f(2,16) - f(2,17) = 0
 fluxo_maquina(2,18): f(2,17) - f(2,18) = 0
 fluxo_maquina(2,19): f(2,18) - f(2,19) = 0
 fluxo_maquina(2,20): f(2,19) - f(2,20) = 0
 fluxo_maquina(3,1): f(3,0) - f(3,1) = 0
 fluxo_maquina(3,2): f(3,1) - f(3,2) = 0
 fluxo_maquina(3,3): - x(1,3,3) - x(3,3,3) + f(3,2) - f(3,3) = 0
 fluxo_maquina(3,4): x(3,3,3) - x(1,3,4) - x(3,3,4) + f(3,3) - f(3,4) = 0
 fluxo_maquina(3,5): x(3,3,4) - x(1,3,5) - x(3,3,5) + f(3,4) - f(3,5) = 0
 fluxo_maquina(3,6): x(3,3,5) - x(1,3,6) - x(3,3,6) + f(3,5) - f(3,6) = 0
 fluxo_maquina(3,7): x(3,3,6) - x(1,3,7) - x(3,3,7) + f(3,6) - f(3,7) = 0
 fluxo_maquina(3,8): x(1,3,3) + x(3,3,7) - x(1,3,8) - x(3,3,8) + f(3,7)
   - f(3,8) = 0
 fluxo_maquina(3,9): x(1,3,4) + x(3,3,8) - x(1,3,9) - x(3,3,9) + f(3,8)
   - f(3,9) - x(2,3,9) = 0
 fluxo_maquina(3,10): x(1,3,5) + x(3,3,9) - x(1,3,10) - x(3,3,10) + f(3,9)
   - f(3,10) - x(2,3,10) = 0
 fluxo_maquina(3,11): x(1,3,6) + x(3,3,10) - x(3,3,11) + f(3,10) - f(3,11)
   - x(2,3,11) = 0
 fluxo_maquina(3,12): x(1,3,7) + x(3,3,11) - x(3,3,12) + x(2,3,9) + f(3,11)
   - f(3,12) - x(2,3,12) = 0
 fluxo_maquina(3,13): x(1,3,8) + x(3,3,12) - x(3,3,13) + x(2,3,10)
   + f(3,12) - f(3,13) - x(2,3,13) = 0
 fluxo_maquina(3,14): x(1,3,9) + x(3,3,13) - x(3,3,14) + x(2,3,11)
   + f(3,13) - f(3,14) - x(2,3,14) = 0
 fluxo_maquina(3,15): x(1,3,10) + x(3,3,14) - x(3,3,15) + x(2,3,12)
   + f(3,14) - f(3,15) - x(2,3,15) = 0
 fluxo_maquina(3,16): x(3,3,15) - x(3,3,16) + x(2,3,13) + f(3,15) - f(3,16)
   - x(2,3,16) = 0
 fluxo_maquina(3,17): x(3,3,16) + x(2,3,14) + f(3,16) - f(3,17) - x(2,3,17)
   = 0
 fluxo_maquina(3,18): x(2,3,15) + f(3,17) - f(3,18) = 0
 fluxo_maquina(3,19): x(2,3,16) + f(3,18) - f(3,19) = 0
 fluxo_maquina(3,20): x(2,3,17) + f(3,19) - f(3,20) = 0
 inicio_espera(m1,j1,t1): x(1,2,0) + e(1,2,0) = 1
 inicio_espera(m1,j2,t1): x(2,2,0) + e(2,2,0) = 1
 inicio_espera(m1,j3,t1): x(3,2,0) + e(3,2,0) = 1
 fluxo_espera(2,1,1): e(1,2,0) - x(1,2,1) - e(1,2,1) = 0
 fluxo_espera(2,1,2): e(1,2,1) - x(1,2,2) - e(1,2,2) = 0
 fluxo_espera(2,1,3): e(1,2,2) - x(1,2,3) - e(1,2,3) = 0
 fluxo_espera(2,1,4): e(1,2,3) - x(1,2,4) - e(1,2,4) = 0
 fluxo_espera(2,1,5): e(1,2,4) - x(1,2,5) - e(1,2,5) = 0
 fluxo_espera(2,1,6): e(1,2,5) - x(1,2,6) - e(1,2,6) = 0
 fluxo_espera(2,1,7): e(1,2,6) - x(1,2,7) - e(1,2,7) = 0
 fluxo_espera(2,2,1): e(2,2,0) - x(2,2,1) - e(2,2,1) = 0
 fluxo_espera(2,2,2): e(2,2,1) - x(2,2,2) - e(2,2,2) = 0
 fluxo_espera(2,2,3): e(2,2,2) - x(2,2,3) - e(2,2,3) = 0
 fluxo_espera(2,2,4): e(2,2,3) - x(2,2,4) - e(2,2,4) = 0
 fluxo_espera(2,2,5): e(2,2,4) - x(2,2,5) - e(2,2,5) = 0
 fluxo_espera(2,2,6): e(2,2,5) - x(2,2,6) - e(2,2,6) = 0
 fluxo_espera(2,2,7): e(2,2,6) - x(2,2,7) - e(2,2,7) = 0
 fluxo_espera(2,2,8): e(2,2,7) - x(2,2,8) - e(2,2,8) = 0
 fluxo_espera(2,3,1): e(3,2,0) - x(3,2,1) - e(3,2,1) = 0
 fluxo_espera(2,3,2): e(3,2,1) - x(3,2,2) - e(3,2,2) = 0
 fluxo_espera(2,3,3): e(3,2,2) - x(3,2,3) - e(3,2,3) = 0
 fluxo_espera(2,3,4): e(3,2,3) - x(3,2,4) - e(3,2,4) = 0
 fluxo_espera(2,3,5): e(3,2,4) - x(3,2,5) - e(3,2,5) = 0
 fluxo_espera(2,3,6): e(3,2,5) - x(3,2,6) - e(3,2,6) = 0
 fluxo_espera(2,3,7): e(3,2,6) - x(3,2,7) - e(3,2,7) = 0
 fluxo_espera(2,3,8): e(3,2,7) - x(3,2,8) - e(3,2,8) = 0
 fluxo_espera(2,3,9): e(3,2,8) - x(3,2,9) - e(3,2,9) = 0
 fluxo_espera(2,3,10): e(3,2,9) - x(3,2,10) - e(3,2,10) = 0
 fluxo_espera(2,3,11): e(3,2,10) - x(3,2,11) - e(3,2,11) = 0
 fluxo_espera(2,3,12): e(3,2,11) - x(3,2,12) - e(3,2,12) = 0
 fluxo_espera(2,3,13): e(3,2,12) - x(3,2,13) - e(3,2,13) = 0
 fluxo_espera(3,1,3): x(1,2,0) - x(1,3,3) - e(1,3,3) = 0
 fluxo_espera(3,1,4): x(1,2,1) + e(1,3,3) - x(1,3,4) - e(1,3,4) = 0
 fluxo_espera(3,1,5): x(1,2,2) + e(1,3,4) - x(1,3,5) - e(1,3,5) = 0
 fluxo_espera(3,1,6): x(1,2,3) + e(1,3,5) - x(1,3,6) - e(1,3,6) = 0
 fluxo_espera(3,1,7): x(1,2,4) + e(1,3,6) - x(1,3,7) - e(1,3,7) = 0
 fluxo_espera(3,1,8): x(1,2,5) + e(1,3,7) - x(1,3,8) - e(1,3,8) = 0
 fluxo_espera(3,1,9): x(1,2,6) + e(1,3,8) - x(1,3,9) - e(1,3,9) = 0
 fluxo_espera(3,1,10): x(1,2,7) + e(1,3,9) - x(1,3,10) - e(1,3,10) = 0
 fluxo_espera(1,2,5): x(2,2,0) - x(2,1,5) - e(2,1,5) = 0
 fluxo_espera(1,2,6): x(2,2,1) + e(2,1,5) - x(2,1,6) - e(2,1,6) = 0
 fluxo_espera(1,2,7): x(2,2,2) + e(2,1,6) - x(2,1,7) - e(2,1,7) = 0
 fluxo_espera(1,2,8): x(2,2,3) + e(2,1,7) - x(2,1,8) - e(2,1,8) = 0
 fluxo_espera(1,2,9): x(2,2,4) + e(2,1,8) - x(2,1,9) - e(2,1,9) = 0
 fluxo_espera(1,2,10): x(2,2,5) + e(2,1,9) - x(2,1,10) - e(2,1,10) = 0
 fluxo_espera(1,2,11): x(2,2,6) + e(2,1,10) - x(2,1,11) - e(2,1,11) = 0
 fluxo_espera(1,2,12): x(2,2,7) + e(2,1,11) - x(2,1,12) - e(2,1,12) = 0
 fluxo_espera(1,2,13): x(2,2,8) + e(2,1,12) - x(2,1,13) - e(2,1,13) = 0
 fluxo_espera(3,3,3): x(3,2,0) - x(3,3,3) - e(3,3,3) = 0
 fluxo_espera(3,3,4): x(3,2,1) + e(3,3,3) - x(3,3,4) - e(3,3,4) = 0
 fluxo_espera(3,3,5): x(3,2,2) + e(3,3,4) - x(3,3,5) - e(3,3,5) = 0
 fluxo_espera(3,3,6): x(3,2,3) + e(3,3,5) - x(3,3,6) - e(3,3,6) = 0
 fluxo_espera(3,3,7): x(3,2,4) + e(3,3,6) - x(3,3,7) - e(3,3,7) = 0
 fluxo_espera(3,3,8): x(3,2,5) + e(3,3,7) - x(3,3,8) - e(3,3,8) = 0
 fluxo_espera(3,3,9): x(3,2,6) + e(3,3,8) - x(3,3,9) - e(3,3,9) = 0
 fluxo_espera(3,3,10): x(3,2,7) + e(3,3,9) - x(3,3,10) - e(3,3,10) = 0
 fluxo_espera(3,3,11): x(3,2,8) + e(3,3,10) - x(3,3,11) - e(3,3,11) = 0
 fluxo_espera(3,3,12): x(3,2,9) + e(3,3,11) - x(3,3,12) - e(3,3,12) = 0
 fluxo_espera(3,3,13): x(3,2,10) + e(3,3,12) - x(3,3,13) - e(3,3,13) = 0
 fluxo_espera(3,3,14): x(3,2,11) + e(3,3,13) - x(3,3,14) - e(3,3,14) = 0
 fluxo_espera(3,3,15): x(3,2,12) + e(3,3,14) - x(3,3,15) - e(3,3,15) = 0
 fluxo_espera(3,3,16): x(3,2,13) + e(3,3,15) - x(3,3,16) - e(3,3,16) = 0
 fluxo_espera(1,1,8): x(1,3,3) - x(1,1,8) - e(1,1,8) = 0
 fluxo_espera(1,1,9): x(1,3,4) + e(1,1,8) - x(1,1,9) - e(1,1,9) = 0
 fluxo_espera(1,1,10): x(1,3,5) + e(1,1,9) - x(1,1,10) - e(1,1,10) = 0
 fluxo_espera(1,1,11): x(1,3,6) + e(1,1,10) - x(1,1,11) - e(1,1,11) = 0
 fluxo_espera(1,1,12): x(1,3,7) + e(1,1,11) - x(1,1,12) - e(1,1,12) = 0
 fluxo_espera(1,1,13): x(1,3,8) + e(1,1,12) - x(1,1,13) - e(1,1,13) = 0
 fluxo_espera(1,1,14): x(1,3,9) + e(1,1,13) - x(1,1,14) - e(1,1,14) = 0
 fluxo_espera(1,1,15): x(1,3,10) + e(1,1,14) - x(1,1,15) - e(1,1,15) = 0
 fluxo_espera(3,2,9): x(2,1,5) - x(2,3,9) - e(2,3,9) = 0
 fluxo_espera(3,2,10): x(2,1,6) + e(2,3,9) - x(2,3,10) - e(2,3,10) = 0
 fluxo_espera(3,2,11): x(2,1,7) + e(2,3,10) - x(2,3,11) - e(2,3,11) = 0
 fluxo_espera(3,2,12): x(2,1,8) + e(2,3,11) - x(2,3,12) - e(2,3,12) = 0
 fluxo_espera(3,2,13): x(2,1,9) + e(2,3,12) - x(2,3,13) - e(2,3,13) = 0
 fluxo_espera(3,2,14): x(2,1,10) + e(2,3,13) - x(2,3,14) - e(2,3,14) = 0
 fluxo_espera(3,2,15): x(2,1,11) + e(2,3,14) - x(2,3,15) - e(2,3,15) = 0
 fluxo_espera(3,2,16): x(2,1,12) + e(2,3,15) - x(2,3,16) - e(2,3,16) = 0
 fluxo_espera(3,2,17): x(2,1,13) + e(2,3,16) - x(2,3,17) - e(2,3,17) = 0
 fluxo_espera(1,3,4): x(3,3,3) - x(3,1,4) - e(3,1,4) = 0
 fluxo_espera(1,3,5): x(3,3,4) + e(3,1,4) - x(3,1,5) - e(3,1,5) = 0
 fluxo_espera(1,3,6): x(3,3,5) + e(3,1,5) - x(3,1,6) - e(3,1,6) = 0
 fluxo_espera(1,3,7): x(3,3,6) + e(3,1,6) - x(3,1,7) - e(3,1,7) = 0
 fluxo_espera(1,3,8): x(3,3,7) + e(3,1,7) - x(3,1,8) - e(3,1,8) = 0
 fluxo_espera(1,3,9): x(3,3,8) + e(3,1,8) - x(3,1,9) - e(3,1,9) = 0
 fluxo_espera(1,3,10): x(3,3,9) + e(3,1,9) - x(3,1,10) - e(3,1,10) = 0
 fluxo_espera(1,3,11): x(3,3,10) + e(3,1,10) - x(3,1,11) - e(3,1,11) = 0
 fluxo_espera(1,3,12): x(3,3,11) + e(3,1,11) - x(3,1,12) - e(3,1,12) = 0
 fluxo_espera(1,3,13): x(3,3,12) + e(3,1,12) - x(3,1,13) - e(3,1,13) = 0
 fluxo_espera(1,3,14): x(3,3,13) + e(3,1,13) - x(3,1,14) - e(3,1,14) = 0
 fluxo_espera(1,3,15): x(3,3,14) + e(3,1,14) - x(3,1,15) - e(3,1,15) = 0
 fluxo_espera(1,3,16): x(3,3,15) + e(3,1,15) - x(3,1,16) - e(3,1,16) = 0
 fluxo_espera(1,3,17): x(3,3,16) + e(3,1,16) - x(3,1,17) - e(3,1,17) = 0
 ultimo_tempo(2,1): e(1,2,6) - x(1,2,7) = 0
 ultimo_tempo(2,2): e(2,2,7) - x(2,2,8) = 0
 ultimo_tempo(2,3): e(3,2,12) - x(3,2,13) = 0
 ultimo_tempo(3,1): x(1,2,7) + e(1,3,9) - x(1,3,10) = 0
 ultimo_tempo(1,2): x(2,2,8) + e(2,1,12) - x(2,1,13) = 0
 ultimo_tempo(3,3): x(3,2,13) + e(3,3,15) - x(3,3,16) = 0
 ultimo_tempo(1,1): x(1,3,10) + e(1,1,14) - x(1,1,15) = 0
 ultimo_tempo(3,2): x(2,1,13) + e(2,3,16) - x(2,3,17) = 0
 ultimo_tempo(1,3): x(3,3,16) + e(3,1,16) - x(3,1,17) = 0
 manual_cut(1): x(1,2,0) + x(2,2,0) + x(1,2,1) + x(1,2,2) + x(1,2,3)
   + x(1,2,4) <= 1
 manual_cut(2): x(1,2,0) + x(2,2,0) + x(1,2,1) + x(1,2,2) + x(1,2,3) <= 1
 manual_cut(3): x(1,1,13) + x(3,1,13) + x(1,1,14) + x(3,1,14) + x(1,1,15)
   + x(3,1,15) + x(3,1,16) + x(3,1,17) <= 1
 manual_cut(4): x(2,1,13) + x(3,1,11) + x(1,1,12) + x(3,1,12) + x(1,1,13)
   + x(3,1,13) + x(3,1,14) + x(3,1,15) + x(3,1,16) <= 1
 manual_cut(5): x(1,2,0) + x(2,2,0) + x(1,2,1) + x(2,2,1) + x(3,2,1)
   + x(1,2,2) + x(2,2,2) + x(3,2,2) + x(1,2,3) <= 1
 manual_cut(6): x(2,1,12) + x(1,1,8) + x(1,1,9) + x(1,1,10) + x(1,1,11)
   + x(1,1,12) + x(1,1,13) + x(1,1,14) + x(1,1,15) <= 1
 manual_cut(7): x(2,1,10) + x(2,1,11) + x(2,1,12) + x(1,1,8) + x(1,1,9)
   + x(1,1,10) + x(1,1,11) + x(3,1,11) + x(1,1,12) + x(3,1,12) + x(1,1,13)
   <= 1
 manual_cut(8): x(1,2,0) + x(2,2,0) + x(1,2,1) + x(2,2,1) + x(3,2,1)
   + x(1,2,2) + x(1,2,3) <= 1
 manual_cut(9): x(2,1,5) + x(2,1,6) + x(2,1,7) + x(2,1,8) + x(2,1,9)
   + x(3,1,7) + x(1,1,8) + x(3,1,8) <= 1
 manual_cut(10): x(1,2,0) + x(2,2,0) + x(1,2,1) + x(2,2,1) + x(1,2,2)
   + x(1,2,3) + x(1,2,4) <= 1
 manual_cut(11): x(3,1,12) + x(1,1,13) + x(3,1,13) + x(1,1,14) + x(3,1,14)
   + x(3,1,15) + x(3,1,16) + x(3,1,17) <= 1
 manual_cut(12): x(2,1,13) + x(1,1,12) + x(1,1,13) + x(3,1,13) + x(1,1,14)
   + x(3,1,14) + x(1,1,15) + x(3,1,15) + x(3,1,16) <= 1
 manual_cut(13): x(2,1,11) + x(2,1,12) + x(2,1,13) + x(1,1,9) + x(1,1,10)
   + x(1,1,11) + x(1,1,12) + x(3,1,12) + x(1,1,13) + x(3,1,13) + x(1,1,14)
   <= 1
 manual_cut(14): x(2,1,12) + x(2,1,13) + x(1,1,9) + x(1,1,10) + x(1,1,11)
   + x(1,1,12) + x(1,1,13) + x(3,1,13) + x(1,1,14) + x(1,1,15) <= 1
 manual_cut(15): x(2,1,5) + x(2,1,6) + x(2,1,7) + x(2,1,8) + x(2,1,9)
   + x(2,1,10) + x(1,1,8) + x(3,1,8) <= 1
 manual_cut(16): x(2,1,5) + x(2,1,6) + x(2,1,7) + x(2,1,8) + x(2,1,9)
   + x(2,1,10) + x(2,1,11) + x(1,1,8) <= 1
 manual_cut(17): x(3,1,11) + x(3,1,12) + x(1,1,13) + x(3,1,13) + x(3,1,14)
   + x(3,1,15) + x(3,1,16) + x(3,1,17) <= 1
 manual_cut(18): x(2,1,13) + x(1,1,12) + x(3,1,12) + x(1,1,13) + x(3,1,13)
   + x(1,1,14) + x(3,1,14) + x(3,1,15) + x(3,1,16) <= 1
 manual_cut(19): x(2,1,11) + x(2,1,12) + x(1,1,8) + x(1,1,9) + x(1,1,10)
   + x(1,1,11) + x(1,1,12) + x(3,1,12) + x(1,1,13) + x(1,1,14) <= 1
 manual_cut(20): x(1,2,0) + x(2,2,0) + x(1,2,1) + x(2,2,1) + x(1,2,2)
   + x(2,2,2) + x(3,2,2) + x(1,2,3) + x(1,2,4) <= 1
 manual_cut(21): x(2,1,5) + x(2,1,6) + x(2,1,7) + x(2,1,8) + x(2,1,9)
   + x(2,1,10) + x(2,1,11) + x(2,1,12) + x(1,1,8) <= 1
 manual_cut(22): x(2,2,0) + x(2,2,1) + x(2,2,2) + x(1,2,3) + x(2,2,3)
   + x(3,2,3) + x(2,2,4) + x(2,2,5) <= 1
 manual_cut(23): x(2,2,0) + x(2,2,1) + x(2,2,2) + x(1,2,3) + x(2,2,3)
   + x(3,2,3) + x(1,2,4) + x(2,2,4) + x(3,2,4) + x(2,2,5) <= 1
 manual_cut(24): x(1,3,8) + x(1,3,9) + x(1,3,10) + x(2,3,9) + x(2,3,10)
   + x(2,3,11) + x(2,3,12) <= 1
 manual_cut(25): x(1,2,1) + x(1,2,2) + x(1,2,3) + x(2,2,3) + x(1,2,4)
   + x(1,2,5) + x(1,2,6) + x(1,2,7) <= 1
 manual_cut(26): x(1,2,3) + x(2,2,3) + x(1,2,4) + x(2,2,4) + x(1,2,5)
   + x(2,2,5) + x(3,2,5) + x(1,2,6) + x(1,2,7) <= 1
 manual_cut(27): x(2,2,3) + x(1,2,4) + x(2,2,4) + x(1,2,5) + x(2,2,5)
   + x(3,2,5) + x(1,2,6) + x(2,2,6) + x(3,2,6) + x(1,2,7) <= 1
 manual_cut(28): x(2,2,0) + x(1,2,1) + x(2,2,1) + x(1,2,2) + x(2,2,2)
   + x(3,2,2) + x(1,2,3) + x(2,2,3) + x(3,2,3) + x(1,2,4) <= 1
 fim(1): - 20 x(1,1,8) - 20 x(1,1,9) - 20 x(1,1,10) - 20 x(1,1,11)
   - 20 x(1,1,12) - 20 x(1,1,13) - 20 x(1,1,14) - 20 x(1,1,15) + C >= 0
 fim(2): - 20 x(2,3,9) - 20 x(2,3,10) - 20 x(2,3,11) - 20 x(2,3,12)
   - 20 x(2,3,13) - 20 x(2,3,14) - 20 x(2,3,15) - 20 x(2,3,16)
   - 20 x(2,3,17) + C >= 0
 fim(3): - 20 x(3,1,4) - 20 x(3,1,5) - 20 x(3,1,6) - 20 x(3,1,7)
   - 20 x(3,1,8) - 20 x(3,1,9) - 20 x(3,1,10) - 20 x(3,1,11) - 20 x(3,1,12)
   - 20 x(3,1,13) - 20 x(3,1,14) - 20 x(3,1,15) - 20 x(3,1,16)
   - 20 x(3,1,17) + C >= 0
Bounds
 f(1,0) <= 1
 x(1,2,0) <= 1
 e(1,2,0) <= 1
 x(2,2,0) <= 1
 e(2,2,0) <= 1
 x(3,2,0) <= 1
 e(3,2,0) <= 1
 f(1,1) <= 1
 x(1,2,1) <= 1
 e(1,2,1) <= 1
 x(2,2,1) <= 1
 e(2,2,1) <= 1
 x(3,2,1) <= 1
 e(3,2,1) <= 1
 f(1,2) <= 1
 x(1,2,2) <= 1
 e(1,2,2) <= 1
 x(2,2,2) <= 1
 e(2,2,2) <= 1
 x(3,2,2) <= 1
 e(3,2,2) <= 1
 f(1,3) <= 1
 x(1,2,3) <= 1
 e(1,2,3) <= 1
 x(2,2,3) <= 1
 e(2,2,3) <= 1
 x(3,2,3) <= 1
 e(3,2,3) <= 1
 f(1,4) <= 1
 x(1,2,4) <= 1
 e(1,2,4) <= 1
 x(2,2,4) <= 1
 e(2,2,4) <= 1
 x(3,2,4) <= 1
 e(3,2,4) <= 1
 f(1,5) <= 1
 x(1,2,5) <= 1
 e(1,2,5) <= 1
 x(2,2,5) <= 1
 e(2,2,5) <= 1
 x(3,2,5) <= 1
 e(3,2,5) <= 1
 f(1,6) <= 1
 x(1,2,6) <= 1
 e(1,2,6) <= 1
 x(2,2,6) <= 1
 e(2,2,6) <= 1
 x(3,2,6) <= 1
 e(3,2,6) <= 1
 f(1,7) <= 1
 x(1,2,7) <= 1
 e(1,2,7) <= 1
 x(2,2,7) <= 1
 e(2,2,7) <= 1
 x(3,2,7) <= 1
 e(3,2,7) <= 1
 f(1,8) <= 1
 x(2,2,8) <= 1
 e(2,2,8) <= 1
 x(3,2,8) <= 1
 e(3,2,8) <= 1
 f(1,9) <= 1
 x(3,2,9) <= 1
 e(3,2,9) <= 1
 f(1,10) <= 1
 x(3,2,10) <= 1
 e(3,2,10) <= 1
 f(1,11) <= 1
 x(3,2,11) <= 1
 e(3,2,11) <= 1
 f(1,12) <= 1
 x(3,2,12) <= 1
 e(3,2,12) <= 1
 f(1,13) <= 1
 x(3,2,13) <= 1
 e(3,2,13) <= 1
 f(1,14) <= 1
 f(1,15) <= 1
 f(1,16) <= 1
 f(1,17) <= 1
 f(1,18) <= 1
 f(1,19) <= 1
 f(1,20) <= 1
 f(2,0) <= 1
 f(2,1) <= 1
 f(2,2) <= 1
 f(2,3) <= 1
 x(1,3,3) <= 1
 e(1,3,3) <= 1
 x(3,3,3) <= 1
 e(3,3,3) <= 1
 f(2,4) <= 1
 x(1,3,4) <= 1
 e(1,3,4) <= 1
 x(3,3,4) <= 1
 e(3,3,4) <= 1
 f(2,5) <= 1
 x(1,3,5) <= 1
 e(1,3,5) <= 1
 x(2,1,5) <= 1
 e(2,1,5) <= 1
 x(3,3,5) <= 1
 e(3,3,5) <= 1
 f(2,6) <= 1
 x(1,3,6) <= 1
 e(1,3,6) <= 1
 x(2,1,6) <= 1
 e(2,1,6) <= 1
 x(3,3,6) <= 1
 e(3,3,6) <= 1
 f(2,7) <= 1
 x(1,3,7) <= 1
 e(1,3,7) <= 1
 x(2,1,7) <= 1
 e(2,1,7) <= 1
 x(3,3,7) <= 1
 e(3,3,7) <= 1
 f(2,8) <= 1
 x(1,3,8) <= 1
 e(1,3,8) <= 1
 x(2,1,8) <= 1
 e(2,1,8) <= 1
 x(3,3,8) <= 1
 e(3,3,8) <= 1
 f(2,9) <= 1
 x(1,3,9) <= 1
 e(1,3,9) <= 1
 x(2,1,9) <= 1
 e(2,1,9) <= 1
 x(3,3,9) <= 1
 e(3,3,9) <= 1
 f(2,10) <= 1
 x(1,3,10) <= 1
 e(1,3,10) <= 1
 x(2,1,10) <= 1
 e(2,1,10) <= 1
 x(3,3,10) <= 1
 e(3,3,10) <= 1
 f(2,11) <= 1
 x(2,1,11) <= 1
 e(2,1,11) <= 1
 x(3,3,11) <= 1
 e(3,3,11) <= 1
 f(2,12) <= 1
 x(2,1,12) <= 1
 e(2,1,12) <= 1
 x(3,3,12) <= 1
 e(3,3,12) <= 1
 f(2,13) <= 1
 x(2,1,13) <= 1
 e(2,1,13) <= 1
 x(3,3,13) <= 1
 e(3,3,13) <= 1
 f(2,14) <= 1
 x(3,3,14) <= 1
 e(3,3,14) <= 1
 f(2,15) <= 1
 x(3,3,15) <= 1
 e(3,3,15) <= 1
 f(2,16) <= 1
 x(3,3,16) <= 1
 e(3,3,16) <= 1
 f(2,17) <= 1
 f(2,18) <= 1
 f(2,19) <= 1
 f(2,20) <= 1
 f(3,0) <= 1
 f(3,1) <= 1
 f(3,2) <= 1
 f(3,3) <= 1
 f(3,4) <= 1
 x(3,1,4) <= 1
 e(3,1,4) <= 1
 f(3,5) <= 1
 x(3,1,5) <= 1
 e(3,1,5) <= 1
 f(3,6) <= 1
 x(3,1,6) <= 1
 e(3,1,6) <= 1
 f(3,7) <= 1
 x(3,1,7) <= 1
 e(3,1,7) <= 1
 f(3,8) <= 1
 x(1,1,8) <= 1
 e(1,1,8) <= 1
 x(3,1,8) <= 1
 e(3,1,8) <= 1
 f(3,9) <= 1
 x(1,1,9) <= 1
 e(1,1,9) <= 1
 x(2,3,9) <= 1
 e(2,3,9) <= 1
 x(3,1,9) <= 1
 e(3,1,9) <= 1
 f(3,10) <= 1
 x(1,1,10) <= 1
 e(1,1,10) <= 1
 x(2,3,10) <= 1
 e(2,3,10) <= 1
 x(3,1,10) <= 1
 e(3,1,10) <= 1
 f(3,11) <= 1
 x(1,1,11) <= 1
 e(1,1,11) <= 1
 x(2,3,11) <= 1
 e(2,3,11) <= 1
 x(3,1,11) <= 1
 e(3,1,11) <= 1
 f(3,12) <= 1
 x(1,1,12) <= 1
 e(1,1,12) <= 1
 x(2,3,12) <= 1
 e(2,3,12) <= 1
 x(3,1,12) <= 1
 e(3,1,12) <= 1
 f(3,13) <= 1
 x(1,1,13) <= 1
 e(1,1,13) <= 1
 x(2,3,13) <= 1
 e(2,3,13) <= 1
 x(3,1,13) <= 1
 e(3,1,13) <= 1
 f(3,14) <= 1
 x(1,1,14) <= 1
 e(1,1,14) <= 1
 x(2,3,14) <= 1
 e(2,3,14) <= 1
 x(3,1,14) <= 1
 e(3,1,14) <= 1
 f(3,15) <= 1
 x(1,1,15) <= 1
 e(1,1,15) <= 1
 x(2,3,15) <= 1
 e(2,3,15) <= 1
 x(3,1,15) <= 1
 e(3,1,15) <= 1
 f(3,16) <= 1
 x(2,3,16) <= 1
 e(2,3,16) <= 1
 x(3,1,16) <= 1
 e(3,1,16) <= 1
 f(3,17) <= 1
 x(2,3,17) <= 1
 e(2,3,17) <= 1
 x(3,1,17) <= 1
 e(3,1,17) <= 1
 f(3,18) <= 1
 f(3,19) <= 1
 f(3,20) <= 1
 C <= 20
End
